
n_res = 4;
rcap = [14, 15, 275, 301];
rtype = [1, 1, 2, 2];
n_tasks = 100;
modes =  [{1, 2, 3}, {4, 5, 6}, {7, 8, 9}, {10, 11, 12}, {13, 14, 15}, {16, 17, 18}, {19, 20, 21}, {22, 23, 24}, {25, 26, 27}, {28, 29, 30}, {31, 32, 33}, {34, 35, 36}, {37, 38, 39}, {40, 41, 42}, {43, 44, 45}, {46, 47, 48}, {49, 50, 51}, {52, 53, 54}, {55, 56, 57}, {58, 59, 60}, {61, 62, 63}, {64, 65, 66}, {67, 68, 69}, {70, 71, 72}, {73, 74, 75}, {76, 77, 78}, {79, 80, 81}, {82, 83, 84}, {85, 86, 87}, {88, 89, 90}, {91, 92, 93}, {94, 95, 96}, {97, 98, 99}, {100, 101, 102}, {103, 104, 105}, {106, 107, 108}, {109, 110, 111}, {112, 113, 114}, {115, 116, 117}, {118, 119, 120}, {121, 122, 123}, {124, 125, 126}, {127, 128, 129}, {130, 131, 132}, {133, 134, 135}, {136, 137, 138}, {139, 140, 141}, {142, 143, 144}, {145, 146, 147}, {148, 149, 150}, {151, 152, 153}, {154, 155, 156}, {157, 158, 159}, {160, 161, 162}, {163, 164, 165}, {166, 167, 168}, {169, 170, 171}, {172, 173, 174}, {175, 176, 177}, {178, 179, 180}, {181, 182, 183}, {184, 185, 186}, {187, 188, 189}, {190, 191, 192}, {193, 194, 195}, {196, 197, 198}, {199, 200, 201}, {202, 203, 204}, {205, 206, 207}, {208, 209, 210}, {211, 212, 213}, {214, 215, 216}, {217, 218, 219}, {220, 221, 222}, {223, 224, 225}, {226, 227, 228}, {229, 230, 231}, {232, 233, 234}, {235, 236, 237}, {238, 239, 240}, {241, 242, 243}, {244, 245, 246}, {247, 248, 249}, {250, 251, 252}, {253, 254, 255}, {256, 257, 258}, {259, 260, 261}, {262, 263, 264}, {265, 266, 267}, {268, 269, 270}, {271, 272, 273}, {274, 275, 276}, {277, 278, 279}, {280, 281, 282}, {283, 284, 285}, {286, 287, 288}, {289, 290, 291}, {292, 293, 294}, {295, 296, 297}, {298, 299, 300}];
succ =  [{48, 46, 40, 36, 35, 32, 29, 26, 21, 7}, {48, 46, 40, 37, 36, 35, 33, 28, 27, 20, 18, 17}, {48, 46, 40, 32, 27, 26, 24, 23, 7}, {68, 53, 46, 43, 35, 30, 29, 26, 23, 22}, {48, 44, 41, 40, 39, 37, 36, 32, 30, 29, 25}, {68, 54, 48, 46, 43, 33, 29, 27, 26, 20}, {57, 49, 43, 33, 28, 20, 18}, {57, 53, 49, 48, 45, 44, 42, 41, 30, 29, 27, 25}, {61, 57, 49, 48, 35, 33, 31, 29, 28, 23}, {69, 68, 61, 57, 54, 53, 48, 45, 43, 41, 33, 31, 30, 29, 27}, {100, 61, 54, 49, 46, 45, 44, 43, 41, 33, 27, 24}, {57, 56, 54, 50, 49, 46, 45, 44, 43, 42, 41, 38, 36, 31, 30}, {58, 57, 50, 49, 46, 42, 41, 39, 37, 36, 34, 30}, {68, 61, 57, 54, 50, 49, 48, 44, 37, 31, 30, 27}, {68, 67, 62, 61, 57, 54, 53, 52, 47, 41, 39, 35, 32, 29}, {62, 58, 57, 53, 52, 50, 49, 47, 44, 41, 39, 25}, {69, 68, 67, 62, 61, 57, 56, 53, 52, 49, 47, 44, 43, 41, 29}, {100, 69, 67, 61, 54, 53, 50, 45, 44, 42, 41, 39, 30}, {100, 69, 62, 60, 58, 57, 54, 53, 50, 49, 47, 41, 33}, {69, 61, 58, 50, 45, 41, 31, 30}, {73, 67, 62, 61, 59, 50, 45, 44, 43, 27}, {67, 66, 62, 61, 59, 57, 45, 42, 27}, {73, 69, 67, 62, 54, 50, 47, 41, 39}, {75, 73, 70, 69, 68, 67, 66, 64, 63, 62, 59, 58, 56, 53, 52, 50}, {75, 68, 67, 60, 59, 54, 43, 35}, {73, 66, 64, 63, 62, 59, 51, 49, 47, 44}, {77, 75, 70, 63, 58, 55, 52, 39}, {99, 97, 77, 75, 73, 68, 67, 66, 64, 55, 53, 52, 51}, {99, 98, 96, 81, 75, 74, 73, 72, 70, 64, 58, 50}, {97, 81, 80, 73, 62, 59, 55, 52, 47}, {99, 98, 97, 96, 82, 77, 73, 72, 70, 67, 66, 55, 51}, {98, 81, 77, 75, 72, 60, 55, 43}, {81, 75, 72, 66, 65, 59, 42}, {81, 77, 75, 60, 59, 56, 43}, {100, 99, 98, 97, 77, 73, 72, 70, 69, 66, 55, 51}, {99, 98, 97, 96, 72, 68, 66, 65, 61, 53, 51}, {100, 99, 98, 97, 81, 73, 69, 66, 60, 55, 51}, {99, 82, 81, 73, 72, 70, 68, 64, 61, 60, 51}, {99, 97, 81, 72, 64, 60, 56, 51}, {95, 94, 82, 77, 76, 65, 64, 58, 57}, {99, 98, 75, 72, 70, 66, 65, 63, 59}, {99, 98, 97, 82, 73, 64, 51}, {99, 97, 96, 70, 64, 51}, {99, 97, 94, 82, 81, 80, 79, 77, 74, 71, 60}, {98, 97, 94, 77, 76, 75, 64, 60}, {98, 97, 77, 66, 51}, {96, 94, 93, 91, 82, 78, 77, 76, 74, 72, 70}, {99, 98, 97, 93, 92, 90, 88, 80, 72, 71, 67}, {98, 96, 95, 87, 80, 74, 55}, {97, 87, 82, 80, 77, 55}, {94, 93, 90, 87, 80, 79, 76, 74, 71}, {98, 96, 95, 94, 90, 89, 88, 72, 71}, {94, 93, 90, 89, 85, 81, 80, 76, 71}, {96, 92, 88, 84, 80, 79, 78, 70}, {94, 90, 79, 76, 71, 65}, {98, 96, 95, 94, 93, 92, 91, 89, 84, 82, 80, 79}, {99, 98, 97, 90, 88, 79, 75, 74}, {97, 93, 89, 88, 87, 79, 71}, {96, 94, 90, 85, 76, 71}, {96, 95, 93, 91, 90, 89, 88, 87, 86, 84, 78}, {95, 92, 91, 89, 87, 84, 83, 79, 77}, {99, 94, 89, 88, 87, 86, 85, 84, 83}, {93, 89, 88, 87, 84, 80, 79}, {92, 89, 85, 71}, {93, 92, 88, 86, 85, 84, 78}, {95, 89, 87, 86, 85, 84, 83}, {94, 89, 86, 85, 84, 81}, {95, 93, 87, 85, 84, 83}, {92, 87, 86, 84, 78}, {95, 90, 89, 87, 86}, {91, 86, 84, 78}, {87, 84, 83, 79}, {89, 87, 86, 85}, {86, 85, 84}, {87, 80}, {92, 88}, {90, 86}, {83}, {85}, {83}, {87}, {85}, {}, {}, {}, {}, {}, {}, {}, {}, {}, {}, {}, {}, {}, {}, {}, {}, {}, {}];
n_opt = 300;
dur = [1, 2, 8, 1, 4, 5, 4, 4, 5, 3, 6, 8, 2, 4, 8, 3, 3, 5, 3, 5, 9, 5, 7, 8, 1, 3, 10, 1, 5, 7, 3, 4, 7, 6, 7, 8, 3, 4, 10, 6, 8, 9, 2, 8, 10, 1, 4, 6, 4, 4, 5, 2, 3, 10, 2, 4, 5, 8, 9, 9, 2, 8, 9, 2, 3, 9, 3, 8, 10, 1, 4, 10, 3, 4, 6, 4, 4, 7, 1, 5, 6, 3, 4, 6, 2, 2, 9, 1, 1, 6, 3, 4, 5, 5, 6, 10, 2, 3, 7, 2, 4, 8, 1, 1, 10, 3, 8, 10, 8, 9, 9, 2, 3, 5, 2, 5, 10, 2, 4, 6, 6, 7, 10, 3, 6, 9, 1, 3, 8, 5, 6, 7, 4, 8, 9, 6, 8, 10, 1, 3, 4, 1, 2, 6, 7, 9, 10, 5, 6, 9, 1, 2, 9, 3, 4, 5, 2, 5, 5, 4, 5, 8, 1, 4, 7, 7, 8, 10, 6, 9, 10, 3, 4, 8, 2, 8, 10, 1, 3, 4, 2, 3, 4, 1, 5, 10, 2, 7, 9, 6, 8, 10, 1, 2, 9, 2, 5, 9, 6, 7, 7, 4, 5, 8, 4, 5, 8, 7, 7, 10, 5, 7, 9, 4, 5, 7, 2, 3, 4, 9, 9, 10, 2, 6, 7, 2, 7, 8, 1, 5, 8, 2, 3, 6, 4, 5, 8, 3, 6, 6, 4, 6, 8, 4, 5, 8, 2, 3, 6, 7, 7, 10, 2, 2, 4, 1, 3, 4, 4, 4, 6, 8, 9, 9, 7, 8, 10, 3, 7, 9, 1, 1, 9, 5, 7, 8, 2, 6, 9, 1, 3, 8, 7, 9, 10, 5, 6, 8, 2, 3, 10, 2, 5, 8, 2, 7, 8, 4, 5, 8];
rreq = [|0, 3, 2, 4, 4, 4, 2, 2, 2, 0, 0, 3, 2, 0, 0, 4, 0, 0, 0, 0, 0, 0, 0, 3, 0, 5, 5, 2, 2, 2, 2, 2, 2, 0, 0, 2, 0, 0, 1, 2, 0, 0, 3, 0, 0, 0, 1, 0, 0, 0, 0, 0, 0, 0, 0, 0, 4, 5, 0, 3, 5, 0, 0, 0, 2, 0, 0, 2, 0, 1, 0, 1, 0, 0, 0, 5, 0, 0, 5, 2, 0, 2, 1, 0, 3, 0, 2, 0, 4, 0, 4, 4, 2, 4, 4, 4, 5, 0, 3, 0, 4, 0, 3, 0, 0, 0, 0, 2, 0, 3, 0, 0, 1, 0, 4, 0, 0, 4, 4, 0, 0, 0, 1, 0, 2, 0, 0, 3, 1, 0, 2, 0, 0, 2, 0, 1, 1, 0, 2, 2, 2, 0, 0, 0, 0, 2, 0, 0, 0, 0, 4, 0, 3, 0, 0, 0, 0, 0, 0, 3, 2, 1, 0, 0, 0, 2, 0, 0, 0, 3, 0, 4, 0, 0, 0, 0, 0, 3, 0, 0, 4, 3, 2, 0, 4, 3, 5, 3, 2, 2, 2, 2, 0, 3, 0, 2, 0, 0, 4, 4, 0, 0, 0, 4, 0, 0, 0, 4, 0, 0, 0, 0, 0, 0, 0, 3, 2, 0, 1, 0, 2, 1, 0, 0, 0, 0, 3, 1, 2, 0, 1, 3, 2, 1, 5, 4, 0, 1, 1, 1, 2, 0, 0, 0, 2, 0, 2, 0, 0, 3, 0, 0, 2, 0, 2, 4, 0, 3, 0, 4, 4, 0, 0, 1, 0, 0, 2, 2, 0, 2, 0, 0, 3, 0, 4, 4, 0, 5, 0, 3, 3, 3, 0, 3, 0, 2, 0, 0, 5, 0, 2, 0, 0, 0, 0, 0, 0, 1, 0, 1
 |5, 0, 0, 0, 0, 0, 0, 0, 0, 5, 3, 0, 0, 3, 3, 0, 2, 1, 4, 4, 4, 2, 1, 0, 4, 0, 0, 0, 0, 0, 0, 0, 0, 4, 3, 0, 2, 2, 0, 0, 1, 1, 0, 2, 2, 3, 0, 2, 5, 3, 2, 1, 1, 1, 2, 2, 0, 0, 3, 0, 0, 4, 2, 4, 0, 4, 5, 0, 5, 0, 4, 0, 5, 4, 4, 0, 1, 1, 0, 0, 2, 0, 0, 3, 0, 4, 0, 4, 0, 2, 0, 0, 0, 0, 0, 0, 0, 1, 0, 3, 0, 1, 0, 4, 4, 5, 5, 0, 4, 0, 3, 4, 0, 1, 0, 2, 2, 0, 0, 5, 2, 1, 0, 3, 0, 2, 2, 0, 0, 3, 0, 1, 4, 0, 3, 0, 0, 1, 0, 0, 0, 5, 4, 4, 5, 0, 4, 4, 3, 2, 0, 3, 0, 4, 2, 2, 2, 2, 2, 0, 0, 0, 2, 2, 2, 0, 5, 5, 4, 0, 2, 0, 2, 2, 2, 2, 2, 0, 1, 1, 0, 0, 0, 4, 0, 0, 0, 0, 0, 0, 0, 0, 4, 0, 2, 0, 2, 1, 0, 0, 2, 4, 3, 0, 2, 2, 2, 0, 3, 2, 4, 4, 4, 4, 3, 0, 0, 4, 0, 4, 0, 0, 4, 4, 3, 4, 0, 0, 0, 3, 0, 0, 0, 0, 0, 0, 2, 0, 0, 0, 0, 1, 1, 4, 0, 3, 0, 3, 2, 0, 3, 3, 0, 2, 0, 0, 3, 0, 4, 0, 0, 2, 2, 0, 3, 2, 0, 0, 3, 0, 3, 1, 0, 3, 0, 0, 4, 0, 3, 0, 0, 0, 4, 0, 2, 0, 1, 1, 0, 3, 0, 5, 5, 5, 5, 4, 3, 0, 3, 0
 |0, 4, 4, 6, 0, 0, 8, 0, 0, 5, 3, 3, 3, 2, 1, 5, 0, 0, 8, 7, 0, 10, 9, 9, 7, 0, 0, 0, 0, 0, 5, 4, 0, 0, 3, 2, 0, 0, 3, 5, 4, 0, 9, 5, 0, 10, 9, 8, 9, 0, 6, 0, 0, 5, 8, 5, 0, 4, 4, 0, 0, 7, 0, 5, 3, 0, 4, 4, 0, 0, 0, 0, 0, 0, 0, 9, 0, 9, 0, 8, 8, 0, 0, 0, 4, 0, 0, 0, 0, 5, 0, 0, 3, 0, 0, 10, 8, 8, 8, 0, 1, 1, 0, 5, 3, 0, 0, 3, 0, 6, 0, 0, 6, 4, 0, 0, 0, 0, 5, 0, 0, 0, 5, 8, 7, 7, 3, 0, 0, 0, 0, 3, 8, 6, 3, 0, 9, 0, 0, 0, 7, 0, 0, 5, 8, 6, 0, 0, 0, 8, 8, 7, 7, 6, 0, 0, 6, 4, 0, 0, 0, 5, 6, 0, 1, 0, 0, 0, 0, 0, 0, 4, 2, 0, 0, 4, 0, 0, 0, 0, 0, 0, 0, 0, 0, 5, 0, 2, 0, 7, 0, 3, 0, 0, 0, 0, 0, 3, 8, 0, 1, 0, 4, 4, 6, 3, 2, 0, 5, 2, 7, 6, 5, 4, 4, 0, 0, 0, 1, 6, 5, 3, 4, 0, 0, 0, 0, 0, 9, 5, 0, 4, 2, 2, 3, 0, 2, 0, 1, 0, 3, 0, 0, 0, 0, 0, 0, 0, 0, 0, 8, 0, 9, 7, 0, 0, 5, 0, 3, 0, 3, 0, 9, 9, 10, 0, 5, 0, 2, 2, 7, 0, 5, 4, 4, 3, 0, 0, 1, 7, 0, 6, 6, 5, 2, 5, 4, 0, 0, 0, 7, 0, 9, 0, 0, 0, 0, 0, 3, 1
 |8, 0, 0, 0, 6, 5, 0, 11, 10, 0, 0, 0, 0, 0, 0, 0, 5, 4, 0, 0, 6, 0, 0, 0, 0, 5, 1, 7, 6, 5, 0, 0, 4, 7, 0, 0, 7, 6, 0, 0, 0, 6, 0, 0, 1, 0, 0, 0, 0, 9, 0, 9, 7, 0, 0, 0, 4, 0, 0, 4, 9, 0, 8, 0, 0, 4, 0, 0, 3, 10, 8, 6, 8, 4, 3, 0, 1, 0, 8, 0, 0, 5, 5, 5, 0, 4, 4, 8, 6, 0, 6, 3, 0, 5, 3, 0, 0, 0, 0, 5, 0, 0, 8, 0, 0, 2, 1, 0, 7, 0, 4, 6, 0, 0, 10, 9, 8, 5, 0, 4, 8, 8, 0, 0, 0, 0, 0, 2, 2, 9, 7, 0, 0, 0, 0, 9, 0, 7, 9, 5, 0, 9, 9, 0, 0, 0, 2, 5, 5, 0, 0, 0, 0, 0, 3, 2, 0, 0, 7, 10, 9, 0, 0, 8, 0, 9, 9, 8, 7, 6, 4, 0, 0, 3, 6, 0, 4, 6, 4, 2, 8, 6, 6, 7, 6, 0, 4, 0, 3, 0, 7, 0, 8, 8, 7, 5, 4, 0, 0, 3, 0, 4, 0, 0, 0, 0, 0, 7, 0, 0, 0, 0, 0, 0, 0, 3, 8, 6, 0, 0, 0, 0, 0, 1, 1, 8, 3, 3, 0, 0, 5, 0, 0, 0, 0, 4, 0, 5, 0, 3, 0, 5, 4, 10, 9, 9, 7, 6, 6, 4, 0, 4, 0, 0, 8, 6, 0, 5, 0, 5, 0, 6, 0, 0, 0, 6, 0, 8, 0, 0, 0, 6, 0, 0, 0, 0, 5, 3, 0, 0, 7, 0, 0, 0, 0, 0, 0, 4, 3, 2, 0, 2, 0, 1, 10, 10, 10, 5, 0, 0|];